205 300 133 124 128 163 107 142 118 141 193 167 171 106 156 185 129 180 178 174 163 168 156 152 105 150 135 191 154 102 165 166 137 199 157 165 127 130 106 111 138 165 179 108 137 100 194 166 181 137 140 143 171 162 162 142 111 197 199 131 199 164 164 135 128 187 166 155 183 172 166 120 103 110 196 140 111 155 106 158 192 112 100 163 140 162 104 117 124 170 115 189 133 179 190 127 131 155 148 180 194 180 100 197 191 196 136 101 116 108 125 107 120 192 136 126 120 107 144 144 177 159 200 176 103 155 102 134 110 116 113 170 196 180 166 186 141 168 153 157 177 144 131 163 136 167 190 156 174 133 200 116 192 165 192 195 120 160 195 197 176 174 166 138 120 131 123 161 199 143 185 141 187 115 104 122 148 194 144 189 126 144 104 184 175 163 144 195 122 104 157 165 144 122 102 164 119 192 192 118 100 142 159 188 123 129 176 